10J3M/DAT/10J3MNNX-1.dat
10 3
26.7695 5.1739
30.2991 5.5045
25.6767 5.0672
33.835 5.8168
24.2728 4.9267
29.272 5.4104
30.1138 5.4876
23.9369 4.8925
16.546 4.0677
32.7403 5.7219
52.0692