10J3M/SOL/10J3MNNX-1.sol
solution status: optimal solution found
objective value:                     91.1540333333333
x#1#2                                               1 	(obj:0)
x#2#2                                               1 	(obj:0)
x#3#1                                               1 	(obj:0)
x#4#2                               0.117382394955913 	(obj:0)
x#4#3                               0.882617605044087 	(obj:0)
x#5#1                                               1 	(obj:0)
x#6#1                              0.0246526828823903 	(obj:0)
x#6#3                                0.97534731711761 	(obj:0)
x#7#2                                               1 	(obj:0)
x#8#1                                               1 	(obj:0)
x#9#1                                               1 	(obj:0)
x#10#3                                              1 	(obj:0)
z                                    91.1540333333333 	(obj:1)
